(set-logic QF_LIA)
(set-info :ran/ran2.smt2)
(set-info :smt-lib-version 2.0)
(declare-fun x1 () Int)
(declare-fun x2 () Int)
(declare-fun x3 () Int)
(assert (<= (+ (* (- 6) x1) (* 10 x2) (* (- 2) x3) ) 21))
(assert (<= (+ (* (- 4) x1) (* (- 7) x2) (* (- 6) x3) ) (- 20)))
(assert (<= (+ (* 8 x1) (* (- 2) x2) (* (- 6) x3) ) 21))
(assert (<= (+ (* 4 x1) (* (- 4) x2) (* (- 9) x3) ) (- 15)))
(assert (<= (+ (* (- 10) x1) (* 5 x2) (* (- 6) x3) ) (- 12)))
(assert (<= (+ (* (- 3) x1) (* 4 x2) (* (- 2) x3) ) (- 22)))
(assert (<= (+ (* 1 x1) (* 0 x2) (* 0 x3) ) 25))
(assert (<= (+ (* (- 1) x1) (* 0 x2) (* 0 x3) ) 25))
(assert (<= (+ (* 0 x1) (* 1 x2) (* 0 x3) ) 25))
(assert (<= (+ (* 0 x1) (* (- 1) x2) (* 0 x3) ) 25))
(assert (<= (+ (* 0 x1) (* 0 x2) (* 1 x3) ) 25))
(assert (<= (+ (* 0 x1) (* 0 x2) (* (- 1) x3) ) 25))
